SPARKNaCl/why3-cvc5/sparknacl-secretbox.adb_170_65_range_check_1.smt2
;; produced by cvc5.drv ;;
(set-logic ALL)
(set-info :smt-lib-version 2.6)
;;; generated by SMT-LIB2 driver
;;; SMT-LIB2 driver: bit-vectors, common part
;;; SMT-LIB2: integer arithmetic
;; "length"
(define-fun length ((x Int) (y Int)) Int
  (ite (<= x y) (+ (- y x) 1) 0))

;; "pow2"
(declare-fun pow2 (Int) Int)

(declare-const two_power_size_minus_one Int)

;; "two_power_size_minus_one_val"
(assert (= two_power_size_minus_one (pow2 (- 64 1))))

;; "uint_in_range"
(define-fun uint_in_range ((i Int)) Bool
  (and (<= 0 i) (<= i 18446744073709551615)))

;; "min"
(define-fun min ((x Int) (y Int)) Int
  (ite (<= x y) x y))

;; "max"
(define-fun max ((x Int) (y Int)) Int
  (ite (<= x y) y x))

;; "Min_r"
(assert (forall ((x Int) (y Int)) (=> (<= y x) (= (min x y) y))))

;; "Max_l"
(assert (forall ((x Int) (y Int)) (=> (<= y x) (= (max x y) x))))

;; "Min_comm"
(assert (forall ((x Int) (y Int)) (= (min x y) (min y x))))

;; "Max_comm"
(assert (forall ((x Int) (y Int)) (= (max x y) (max y x))))

;; "Min_assoc"
(assert
  (forall ((x Int) (y Int) (z Int)) (= (min (min x y) z) (min x (min y z)))))

;; "Max_assoc"
(assert
  (forall ((x Int) (y Int) (z Int)) (= (max (max x y) z) (max x (max y z)))))

(declare-sort tinteger_32B 0)

;; "tinteger_32B'int"
(declare-fun tinteger_32Bqtint (tinteger_32B) Int)

;; "tinteger_32B'axiom"
(assert
  (forall ((i tinteger_32B))
    (and
      (<= (- 2147483648) (tinteger_32Bqtint i))
      (<= (tinteger_32Bqtint i) 2147483647))))

;; "in_range"
(define-fun in_range ((x Int)) Bool
  (and (<= (- 2147483648) x) (<= x 2147483647)))

;; "to_rep"
(define-fun to_rep ((x tinteger_32B)) Int
  (tinteger_32Bqtint x))

;; "of_rep"
(declare-fun of_rep (Int) tinteger_32B)

;; "inversion_axiom"
(assert
  (forall ((x tinteger_32B))
    (! (= (of_rep (to_rep x)) x) :pattern ((to_rep x)) )))

;; "range_axiom"
(assert
  (forall ((x tinteger_32B))
    (! (in_range (to_rep x)) :pattern ((to_rep x)) )))

;; "coerce_axiom"
(assert
  (forall ((x Int))
    (! (=> (in_range x) (= (to_rep (of_rep x)) x)) :pattern ((to_rep
                                                               (of_rep x))) )))

;; "in_range"
(define-fun in_range1 ((x Int)) Bool
  (and (<= 0 x) (<= x 2147483647)))

(declare-const two_power_size_minus_one1 Int)

;; "two_power_size_minus_one_val"
(assert (= two_power_size_minus_one1 (pow2 (- 8 1))))

(declare-sort byte 0)

;; "to_rep"
(declare-fun to_rep1 (byte) (_ BitVec 8))

;; "of_rep"
(declare-fun of_rep1 ((_ BitVec 8)) byte)

;; "inversion_axiom"
(assert
  (forall ((x byte)) (! (= (of_rep1 (to_rep1 x)) x) :pattern ((to_rep1 x)) )))

;; "range_axiom"
(assert true)

;; "coerce_axiom"
(assert
  (forall ((x (_ BitVec 8)))
    (! (= (to_rep1 (of_rep1 x)) x) :pattern ((to_rep1 (of_rep1 x))) )))

(declare-sort map1 0)

;; "has_bounds"
(declare-fun has_bounds (map1
  Int
  Int) Bool)

;; "get"
(declare-fun get (map1
  Int) byte)

;; "concat"
(declare-fun concat1 (map1
  Int
  Int
  map1
  Int
  Int
  Int) map1)

;; "concat_def"
(assert
  (forall ((a map1) (b map1) (a_first Int) (a_last Int) (b_first Int) (b_last Int) (new_last Int))
    (! (and
         (=>
           (<= a_first a_last)
           (=>
             (<= a_last new_last)
             (has_bounds
               (concat1 a a_first a_last b b_first b_last new_last)
               a_first
               new_last)))
         (forall ((i Int))
           (! (and
                (=>
                  (and (<= a_first i) (<= i a_last))
                  (= (get
                       (concat1 a a_first a_last b b_first b_last new_last)
                       i) (get a i)))
                (=>
                  (and (< a_last i) (<= i new_last))
                  (= (get
                       (concat1 a a_first a_last b b_first b_last new_last)
                       i) (get b (+ (- i a_last) (- b_first 1)))))) :pattern (
           (get
             (concat1 a a_first a_last b b_first b_last new_last)
             i)) ))) :pattern ((concat1
                                 a
                                 a_first
                                 a_last
                                 b
                                 b_first
                                 b_last
                                 new_last)) )))

(declare-datatypes ((t 0))
  (((tqtmk (rec__first tinteger_32B)(rec__last tinteger_32B)))))

;; "mk"
(declare-fun mk (Int
  Int) t)

;; "mk_def"
(assert
  (forall ((f Int) (l Int))
    (! (=>
         (in_range f)
         (=>
           (in_range l)
           (and
             (= (to_rep (rec__first (mk f l))) f)
             (= (to_rep (rec__last (mk f l))) l)))) :pattern ((mk f l)) )))

;; "dynamic_property"
(define-fun dynamic_property ((range_first Int) (range_last Int) (low Int) (high Int)) Bool
  (and
    (in_range low)
    (and
      (in_range high)
      (=> (<= low high) (and (in_range1 low) (in_range1 high))))))

(declare-datatypes ((us_t 0))
  (((us_tqtmk (elts map1)(rt t)))))

;; "to_array"
(define-fun to_array ((a us_t)) map1
  (elts a))

;; "of_array"
(define-fun of_array ((a map1) (f Int) (l Int)) us_t
  (us_tqtmk a (mk f l)))

;; "first"
(define-fun first ((a us_t)) Int
  (to_rep (rec__first (rt a))))

;; "last"
(define-fun last ((a us_t)) Int
  (to_rep (rec__last (rt a))))

;; "length"
(define-fun length1 ((a us_t)) Int
  (ite (<= (first a) (last a)) (+ (- (last a) (first a)) 1) 0))

;; "well_formed"
(define-fun well_formed ((a us_t)) Bool
  (has_bounds
    (elts a)
    (to_rep (rec__first (rt a)))
    (to_rep (rec__last (rt a)))))

(declare-const c us_t)

(declare-const aad us_t)

;; "le64"
(declare-fun le64 ((_ BitVec 64)) map1)

;; "le64__function_guard"
(declare-fun le64__function_guard (map1
  (_ BitVec 64)) Bool)

;; "dynamic_invariant"
(define-fun dynamic_invariant ((temp___expr_254 us_t) (temp___is_init_250 Bool) (temp___skip_constant_251 Bool) (temp___do_toplevel_252 Bool) (temp___do_typ_inv_253 Bool)) Bool
  (and
    (=>
      (not (= temp___skip_constant_251 true))
      (dynamic_property
        0
        2147483647
        (first temp___expr_254)
        (last temp___expr_254)))
    (well_formed temp___expr_254)))

;; "pad16"
(declare-fun pad16 (Int) us_t)

;; "pad16__function_guard"
(declare-fun pad16__function_guard (us_t
  Int) Bool)

(declare-const padded_aad us_t)

(declare-const padded_c us_t)

;; "le64__post_axiom"
(assert
  (forall ((param__u (_ BitVec 64)))
    (! (let ((result (le64 param__u)))
         (=> (le64__function_guard result param__u) (has_bounds result 0 7))) :pattern (
    (le64
      param__u)) )))

;; "pad16__post_axiom"
(assert
  (forall ((param__len Int))
    (! (=>
         (in_range1 param__len)
         (let ((result (pad16 param__len)))
           (=>
             (pad16__function_guard result param__len)
             (and
               (and
                 (< (length1 result) 16)
                 (=> (< 0 (length1 result)) (= (first result) 0)))
               (dynamic_invariant result true false true true))))) :pattern (
    (pad16
      param__len)) )))

;; Goal "def'vc"
;; File "sparknacl-secretbox.adb", line 107, characters 0-0
(assert
  (not
  (=>
    (dynamic_invariant c true false true true)
    (=>
      (dynamic_invariant aad true false true true)
      (=>
        (and
          (and
            (and
              (and (= (first aad) 0) (= (first c) 0))
              (< (last aad) 2147483647))
            (< (last c) 2147483647))
          (<= (+ (+ (length1 c) (length1 aad)) 45) 2147483647))
        (forall ((ada___sparknacl__secretbox__gen_auth_msg__padded_aad__assume us_t))
          (=>
            (let ((o (length1 aad)))
              (and
                (in_range o)
                (let ((temp___1076 (pad16 o)))
                  (and
                    (and
                      (pad16__function_guard temp___1076 o)
                      (and
                        (dynamic_invariant temp___1076 true false true true)
                        (and
                          (< (length1 temp___1076) 16)
                          (=>
                            (< 0 (length1 temp___1076))
                            (= (first temp___1076) 0)))))
                    (ite (= (length1 aad) 0)
                      (= ada___sparknacl__secretbox__gen_auth_msg__padded_aad__assume 
                      (pad16
                        o))
                      (let ((o1 (- (+ (first aad) (+ (length
                                                       (first aad)
                                                       (last aad)) (length
                                                                    (first
                                                                    temp___1076)
                                                                    (last
                                                                    temp___1076)))) 1)))
                        (and
                          (in_range1 o1)
                          (= ada___sparknacl__secretbox__gen_auth_msg__padded_aad__assume 
                          (of_array
                            (concat1
                              (to_array aad)
                              (first aad)
                              (last aad)
                              (to_array temp___1076)
                              (first temp___1076)
                              (last temp___1076)
                              (+ 2147483647 (length
                                              (first temp___1076)
                                              (last temp___1076))))
                            (first aad)
                            o1)))))))))
            (=>
              (= ada___sparknacl__secretbox__gen_auth_msg__padded_aad__assume 
              padded_aad)
              (=>
                (dynamic_invariant padded_aad true false true true)
                (=>
                  (<= (length1 padded_aad) (+ (length1 aad) 15))
                  (forall ((ada___sparknacl__secretbox__gen_auth_msg__padded_c__assume us_t))
                    (=>
                      (let ((o (length1 c)))
                        (and
                          (in_range o)
                          (let ((temp___1078 (pad16 o)))
                            (and
                              (and
                                (pad16__function_guard temp___1078 o)
                                (and
                                  (dynamic_invariant
                                    temp___1078
                                    true
                                    false
                                    true
                                    true)
                                  (and
                                    (< (length1 temp___1078) 16)
                                    (=>
                                      (< 0 (length1 temp___1078))
                                      (= (first temp___1078) 0)))))
                              (ite (= (length1 c) 0)
                                (= ada___sparknacl__secretbox__gen_auth_msg__padded_c__assume 
                                (pad16
                                  o))
                                (let ((o1 (- (+ (first c) (+ (length
                                                               (first c)
                                                               (last c)) 
                                  (length
                                    (first temp___1078)
                                    (last temp___1078)))) 1)))
                                  (and
                                    (in_range1 o1)
                                    (= ada___sparknacl__secretbox__gen_auth_msg__padded_c__assume 
                                    (of_array
                                      (concat1
                                        (to_array c)
                                        (first c)
                                        (last c)
                                        (to_array temp___1078)
                                        (first temp___1078)
                                        (last temp___1078)
                                        (+ 2147483647 (length
                                                        (first temp___1078)
                                                        (last temp___1078))))
                                      (first c)
                                      o1)))))))))
                      (=>
                        (= ada___sparknacl__secretbox__gen_auth_msg__padded_c__assume 
                        padded_c)
                        (=>
                          (dynamic_invariant padded_c true false true true)
                          (=>
                            (<= (length1 padded_c) (+ (length1 c) 15))
                            (let ((o (length1 c)))
                              (=>
                                (uint_in_range o)
                                (let ((o1 ((_ int2bv 64) o)))
                                  (let ((temp___1081 (le64 o1)))
                                    (=>
                                      (and
                                        (le64__function_guard temp___1081 o1)
                                        (has_bounds temp___1081 0 7))
                                      (let ((o2 (length1 aad)))
                                        (=>
                                          (uint_in_range o2)
                                          (let ((o3 ((_ int2bv 64) o2)))
                                            (let ((temp___1080 (le64 o3)))
                                              (=>
                                                (and
                                                  (le64__function_guard
                                                    temp___1080
                                                    o3)
                                                  (has_bounds
                                                    temp___1080
                                                    0
                                                    7))
                                                (<= 0 (- (+ 0 (+ (length 0 7) 
                                                (length
                                                  0
                                                  7))) 1)))))))))))))))))))))))))))

(check-sat)
